% Archivo de datos
r=0.8;     %porcentaje límite para considerar régimen alto 
dr=3;    %número de días de espera para evitar el  régimen alto  
n=4;      %Número de días de producción
s=3;      %Número de clientes
Cn=165;    %Costo de producción de central nuclear
Ch=15;    %Costo de producción de central hidroeléctrica
Ct=75;    %Costo de producción de central térmica
Pn=1710;  %Max. producción diaria de central nuclear
Ph=1800;   %Max. producción diaria de central hidroeléctrica
Pt=1800;   %Max. producción diaria de  central térmica
D=[|1800,1620,1620
   |1800,1620,1620
   |1620,1620,1620
   |1440,1620,1620|];      %Demanda diaria